data;
set giocatori :=  A B C D E F G H M N P Q;
set ruoli := palleggiatore martello_1 cantrale_2 opposto martello_2 centrale_1;


param: 		  A B C D E F G H M N P Q :=
palleggiatore 1 2 1 3 1 4 2 3 3 2 2 3
martello_1 	  2 3 3 2 3 1 2 2 3 2 1 1 
cantrale_2 	  3 2 3 3 1 1 2 3 2 2 1 1
opposto 	  2 1 3 2 3 4 1 3 3 2 3 3 
martello_2	  1 2 2 2 2 1 2 1 2 3 3 3 
centrale_1	  4 3 4 3 1 3 1 1 1 3 2 1
;